435 840
57 1 -4
200 1 -4
201 1 4
216 1 4
220 2 -4
237 2 4
300 2 4
326 2 -4
4 3 -4
259 3 4
356 3 4
359 3 -4
11 4 4
256 4 -4
278 4 4
244 5 4
265 5 -4
308 5 4
336 5 -4
162 6 -4
220 6 -4
355 6 4
398 6 4
229 7 4
285 7 4
287 7 -4
368 7 -4
9 8 4
10 8 -4
75 8 4
84 8 -4
62 9 4
163 9 -4
170 9 -4
73 10 4
74 10 4
164 10 -4
259 11 4
431 11 -4
434 11 -4
13 12 -4
82 12 4
173 12 -4
210 12 4
178 13 -4
209 13 4
309 13 4
15 14 4
16 14 -4
63 14 4
94 14 -4
32 15 -4
55 15 4
168 15 -4
83 16 4
168 16 -4
291 16 4
18 17 4
37 17 -4
249 17 4
315 17 -4
45 18 -4
63 18 -4
65 18 4
257 19 4
393 19 4
396 19 -4
429 19 -4
21 20 4
162 20 -4
261 20 4
361 20 -4
396 21 4
397 21 -4
400 21 -4
71 22 4
197 22 4
198 22 -4
229 22 -4
232 23 -4
246 23 4
339 23 4
411 23 -4
25 24 -4
56 24 4
339 24 4
343 24 -4
93 25 4
170 25 -4
313 25 4
27 26 4
214 26 -4
272 26 4
292 26 -4
50 27 -4
56 27 -4
381 27 4
249 28 -4
272 28 4
295 28 4
320 28 -4
307 29 -4
333 29 4
335 29 4
405 29 -4
31 30 4
180 30 4
211 30 -4
244 30 -4
103 31 -4
129 31 4
369 31 -4
33 32 4
34 32 -4
44 32 4
146 33 4
180 33 -4
245 33 -4
82 34 -4
289 34 4
373 34 4
199 35 -4
270 35 -4
294 35 4
416 35 4
37 36 -4
86 36 4
294 36 4
349 36 -4
121 37 4
233 37 4
39 38 -4
133 38 4
365 38 4
367 38 -4
107 39 -4
114 39 4
332 39 4
41 40 4
175 40 4
230 40 -4
265 40 -4
111 41 -4
135 41 4
406 41 -4
150 42 4
163 42 4
175 42 -4
230 42 -4
130 43 4
136 43 4
163 43 -4
198 43 -4
163 44 -4
377 44 4
414 44 -4
62 45 4
189 45 4
377 45 -4
78 46 4
214 46 -4
318 46 4
385 46 -4
48 47 -4
128 47 4
402 47 4
404 47 -4
98 48 -4
284 48 4
364 48 4
178 49 -4
179 49 4
286 49 -4
288 49 4
55 50 4
342 50 -4
416 50 4
67 51 4
199 51 -4
347 51 4
421 51 -4
255 52 4
277 52 -4
397 52 4
431 52 -4
54 53 -4
124 53 4
167 53 4
285 53 -4
89 54 -4
263 54 4
401 54 4
312 55 -4
314 55 -4
291 56 4
292 56 -4
68 57 4
297 57 -4
384 57 4
141 58 4
236 58 -4
353 58 -4
355 58 4
60 59 4
61 59 -4
120 59 4
308 59 -4
70 60 4
225 60 -4
334 60 -4
80 61 -4
127 61 4
242 61 4
143 62 -4
290 62 -4
270 63 -4
313 63 4
65 64 4
190 64 -4
200 64 -4
420 64 4
148 65 -4
345 65 -4
131 66 4
166 66 4
200 66 -4
420 66 -4
166 67 -4
233 67 -4
386 67 4
166 68 -4
192 68 4
202 68 -4
138 69 4
219 69 -4
325 69 -4
328 69 4
226 70 -4
72 71 4
246 71 -4
411 71 -4
91 72 -4
130 72 -4
159 72 4
147 73 -4
411 73 4
412 73 -4
165 74 4
267 74 -4
269 74 -4
248 75 -4
315 75 -4
341 75 4
152 76 -4
315 76 4
316 76 -4
382 76 4
125 77 4
169 77 4
201 77 -4
383 77 -4
169 78 -4
250 78 -4
350 78 4
132 79 4
203 79 -4
299 79 -4
302 79 4
167 80 4
142 81 -4
167 81 4
309 82 4
374 82 -4
151 83 -4
374 83 4
375 83 -4
292 84 -4
376 84 4
417 84 4
171 85 4
191 85 -4
233 85 4
348 85 -4
171 86 -4
273 86 -4
321 86 4
96 87 -4
126 87 4
276 87 -4
278 87 4
106 88 4
177 88 -4
239 88 4
260 88 -4
402 89 4
145 90 -4
402 90 4
92 91 4
196 91 4
228 91 -4
198 92 4
287 92 -4
372 92 -4
157 93 -4
338 93 4
340 93 -4
270 94 -4
379 94 4
413 94 4
174 95 4
185 95 -4
250 95 4
319 95 -4
97 96 4
182 96 -4
393 96 4
219 97 -4
251 97 4
296 97 -4
365 98 4
149 99 -4
365 99 4
101 100 4
103 100 4
196 100 -4
403 100 -4
145 101 -4
365 101 4
368 101 -4
103 102 4
104 102 4
243 102 -4
371 102 -4
124 103 -4
211 104 4
265 104 -4
409 104 -4
112 105 -4
176 105 4
181 105 -4
273 105 4
187 106 -4
333 107 4
307 108 -4
333 108 4
149 109 -4
208 109 4
333 109 4
336 109 -4
111 110 4
264 110 -4
266 110 4
408 110 -4
120 111 -4
208 111 4
152 112 4
294 112 4
295 112 -4
114 113 4
178 113 -4
228 113 -4
334 113 4
307 114 -4
308 114 -4
215 115 -4
249 115 4
271 115 4
379 115 -4
117 116 4
118 116 -4
119 116 4
193 116 -4
132 117 4
238 117 -4
430 117 -4
138 118 4
220 118 4
258 118 -4
204 119 -4
206 119 4
223 119 -4
243 120 -4
284 120 4
199 121 -4
293 121 4
345 121 -4
126 122 4
204 122 4
221 122 -4
395 122 -4
141 123 4
204 123 -4
237 123 4
280 123 -4
263 124 4
264 124 -4
214 125 4
215 125 -4
384 125 -4
354 126 -4
357 126 -4
227 127 -4
196 128 -4
242 128 4
286 128 -4
130 129 4
197 129 -4
373 129 -4
157 130 -4
421 131 -4
423 131 4
424 131 -4
327 132 -4
329 132 -4
134 133 4
209 133 -4
406 133 -4
226 134 4
227 134 -4
335 134 -4
210 135 -4
337 135 4
410 135 -4
137 136 4
212 136 -4
267 136 -4
291 137 -4
311 137 -4
341 137 4
301 138 -4
303 138 -4
143 139 4
314 139 -4
380 139 -4
418 139 4
233 140 4
418 140 4
419 140 -4
420 140 -4
277 141 -4
279 141 -4
242 142 4
401 142 4
403 142 -4
291 143 4
293 143 -4
250 144 4
380 144 4
381 144 -4
383 144 -4
263 145 4
364 145 4
147 146 4
267 146 -4
340 146 -4
409 147 4
410 147 -4
273 148 4
346 148 4
348 148 -4
284 149 4
332 149 4
151 150 4
290 150 -4
375 150 -4
372 151 4
373 151 -4
317 152 4
319 152 -4
154 153 4
305 153 -4
161 154 -4
433 154 4
434 154 -4
309 155 4
406 155 4
407 155 -4
408 155 -4
157 156 4
310 156 4
312 156 -4
412 156 -4
337 157 4
331 158 -4
435 158 4
369 159 4
370 159 -4
371 159 -4
354 160 4
425 160 4
426 160 -4
429 160 -4
435 161 4
359 162 -4
396 162 4
212 164 -4
310 164 4
339 164 -4
315 165 -4
414 165 -4
416 165 -4
217 166 -4
366 167 -4
231 168 -4
338 168 4
217 169 -4
234 169 -4
247 170 -4
374 170 4
234 171 -4
251 171 -4
183 172 -4
362 172 -4
179 173 -4
310 173 4
411 173 -4
251 174 -4
274 174 -4
295 174 -4
338 175 4
408 175 4
274 176 -4
296 176 -4
320 176 -4
194 177 -4
405 178 -4
245 179 -4
287 179 -4
371 180 4
374 180 4
296 181 -4
322 181 -4
349 181 -4
234 182 4
236 182 -4
322 182 -4
184 183 -4
222 183 4
281 183 -4
206 184 -4
322 185 -4
351 185 -4
385 185 -4
203 186 -4
217 186 4
253 186 -4
351 186 -4
188 187 -4
205 187 4
433 187 -4
223 188 -4
190 189 -4
213 189 -4
269 189 -4
214 190 -4
316 190 4
351 191 -4
387 191 -4
421 191 -4
219 192 -4
276 192 -4
387 192 -4
194 193 4
221 193 -4
240 193 -4
195 194 -4
399 194 -4
240 195 -4
197 196 -4
370 197 -4
338 198 -4
200 199 -4
387 201 -4
423 201 -4
236 202 -4
299 202 -4
423 202 -4
389 203 -4
428 203 4
205 204 -4
238 205 -4
261 205 -4
207 206 -4
360 206 -4
261 207 -4
209 208 -4
366 208 4
210 209 -4
407 210 -4
212 211 -4
310 211 -4
337 212 4
215 213 -4
248 213 -4
318 213 4
216 215 -4
382 216 4
384 216 4
218 217 -4
253 218 -4
325 218 -4
424 218 4
254 219 -4
254 220 -4
222 221 -4
257 221 -4
258 222 -4
282 222 -4
224 223 -4
400 223 -4
282 224 -4
227 225 -4
306 226 -4
334 226 -4
366 227 -4
229 228 -4
335 228 -4
288 229 -4
231 230 -4
266 230 4
289 231 -4
372 231 4
268 232 -4
289 232 -4
313 232 -4
235 234 -4
276 235 -4
353 235 -4
388 235 4
428 236 -4
356 237 -4
428 237 4
239 238 -4
279 238 -4
280 239 -4
305 239 -4
241 240 -4
434 240 -4
305 241 -4
367 242 -4
244 243 -4
367 243 -4
266 244 -4
247 245 -4
288 245 4
311 246 4
410 246 4
311 247 -4
409 247 4
343 248 -4
380 248 4
250 249 4
252 251 -4
299 252 -4
352 252 4
391 252 -4
255 253 -4
393 253 -4
256 254 -4
392 254 -4
256 255 -4
391 255 -4
257 256 -4
304 257 -4
260 258 -4
303 258 -4
282 259 4
331 259 -4
304 260 -4
331 260 -4
262 261 -4
331 262 -4
404 263 -4
265 264 -4
404 264 -4
409 266 4
376 267 4
269 268 -4
312 268 4
343 268 -4
271 269 -4
346 270 4
344 271 -4
346 271 -4
273 272 4
418 272 4
275 274 -4
389 274 -4
323 275 4
325 275 -4
427 275 -4
277 276 -4
427 277 -4
279 278 4
394 278 -4
330 279 -4
281 280 -4
329 280 -4
330 281 -4
361 281 -4
283 282 -4
361 283 -4
285 284 -4
286 285 -4
287 286 -4
372 288 4
290 289 -4
413 290 4
317 292 4
317 293 -4
378 293 -4
380 294 4
321 295 -4
298 296 -4
298 297 -4
321 297 -4
389 297 -4
300 298 -4
353 298 -4
301 299 -4
301 300 -4
390 300 -4
355 301 -4
303 302 4
354 302 -4
396 302 4
358 303 -4
357 304 -4
433 304 -4
359 305 4
307 306 -4
406 308 -4
337 309 -4
312 311 -4
314 313 4
316 314 -4
415 316 -4
347 317 4
319 318 4
346 318 4
320 319 -4
350 320 -4
323 321 -4
324 322 -4
324 323 -4
350 323 -4
326 324 -4
391 324 -4
327 325 -4
327 326 -4
426 326 -4
328 327 -4
329 328 4
356 328 4
398 329 -4
397 330 -4
399 330 -4
336 334 -4
369 335 -4
369 336 -4
342 339 4
342 340 -4
413 340 -4
344 341 4
412 341 -4
344 342 -4
345 343 4
345 344 -4
348 347 4
419 347 -4
349 348 -4
386 349 -4
352 350 -4
425 351 -4
386 352 -4
425 352 -4
354 353 -4
357 355 4
432 356 4
432 357 -4
360 358 -4
431 358 -4
433 358 -4
362 359 -4
362 360 -4
432 360 -4
363 361 -4
363 362 -4
368 366 -4
370 367 -4
370 368 -4
373 371 -4
376 375 -4
377 375 -4
378 376 4
378 377 -4
379 378 -4
381 379 -4
382 381 -4
383 382 4
385 383 -4
422 384 4
422 385 -4
388 386 -4
390 387 -4
390 388 -4
422 388 -4
392 389 -4
392 390 -4
394 391 -4
394 392 -4
395 393 4
395 394 -4
397 395 -4
399 398 -4
400 398 -4
435 399 4
435 400 -4
403 402 4
405 403 -4
407 404 -4
407 405 -4
410 408 -4
414 412 -4
415 413 4
415 414 -4
417 415 -4
419 416 4
418 417 -4
419 417 -4
421 420 -4
424 422 -4
426 423 -4
426 424 -4
427 425 -4
429 427 -4
430 428 4
430 429 -4
431 430 -4
434 432 -4
274
162 2
163 2
164 2
165 2
166 2
167 -2
168 2
169 2
170 2
171 2
172 2
173 2
174 2
175 -2
176 2
177 2
178 4
179 2
180 -2
181 4
182 2
183 2
184 2
185 4
186 2
187 2
188 2
189 2
190 2
191 4
192 2
193 2
194 2
195 2
196 2
197 2
198 2
199 4
200 4
201 2
202 4
203 2
204 2
205 2
206 2
207 2
208 -2
209 2
210 2
211 2
212 2
213 2
214 2
215 4
216 -2
217 2
218 2
219 4
220 2
221 4
222 2
223 4
224 2
225 2
226 2
227 4
228 4
229 2
230 2
231 2
232 4
233 -2
234 2
235 2
236 4
237 -2
238 4
239 2
240 4
241 2
242 -2
243 4
244 2
245 2
246 -2
247 2
248 2
249 -2
250 -2
251 2
252 2
253 4
254 4
255 2
256 4
257 2
258 4
259 -2
260 4
261 2
262 2
263 -2
264 4
265 4
266 -2
267 2
268 2
269 4
270 2
271 2
272 -4
273 -2
274 4
275 2
276 4
277 4
278 -2
279 2
280 4
281 4
282 2
283 2
284 -2
285 2
286 4
287 4
288 -2
289 2
290 2
291 -2
292 2
293 2
294 -4
295 2
296 4
297 4
298 4
299 4
300 2
301 4
302 -2
303 2
304 4
305 2
306 2
307 4
308 2
309 -2
310 -2
311 2
312 2
313 -2
314 2
315 2
316 2
317 -2
318 -4
319 2
320 4
321 2
322 4
323 2
324 4
325 4
326 4
327 4
328 -2
329 2
330 4
331 4
332 -2
333 -4
334 2
335 2
336 4
337 -2
338 -2
339 -2
340 4
341 -2
342 2
343 2
344 2
345 2
346 -2
347 -2
348 2
349 4
350 2
351 4
352 2
353 4
354 2
355 -2
356 -2
357 2
358 4
359 2
360 4
361 4
362 4
363 2
364 -2
365 -4
366 2
367 4
368 4
369 2
370 4
371 2
372 -2
373 2
374 -2
375 4
376 -2
377 2
378 2
379 2
380 -2
381 2
382 -2
383 2
384 -2
385 4
386 2
387 4
388 2
389 4
390 4
391 4
392 4
393 -2
394 4
395 2
396 -2
397 2
398 2
399 2
400 4
401 -2
402 -4
403 2
404 4
405 4
406 2
407 4
408 2
409 -2
410 2
411 2
412 4
413 -2
414 4
415 2
416 -2
417 2
418 -2
419 2
420 2
421 4
422 2
423 2
424 2
425 2
426 4
427 4
428 -2
429 4
430 2
431 4
432 2
433 2
434 4
435 -2
